21° run output:
{
    "Function": "euclidA500.tsp",
    "Problem dimension": [
        14,
        242,
        348,
        149,
        431,
        439,
        355,
        331,
        447,
        157,
        362,
        457,
        232,
        105,
        416,
        26,
        302,
        411,
        246,
        274,
        293,
        407,
        243,
        158,
        191,
        147,
        253,
        335,
        56,
        329,
        389,
        419,
        172,
        437,
        264,
        100,
        363,
        73,
        89,
        462,
        42,
        384,
        306,
        76,
        107,
        422,
        349,
        128,
        245,
        277,
        285,
        311,
        3,
        383,
        326,
        46,
        138,
        114,
        480,
        299,
        429,
        423,
        68,
        418,
        67,
        325,
        357,
        96,
        161,
        6,
        475,
        7,
        184,
        332,
        209,
        225,
        52,
        300,
        344,
        227,
        19,
        247,
        123,
        21,
        273,
        87,
        0,
        36,
        2,
        410,
        130,
        57,
        34,
        235,
        198,
        119,
        15,
        485,
        412,
        489,
        220,
        145,
        154,
        33,
        144,
        91,
        259,
        204,
        139,
        374,
        381,
        77,
        132,
        230,
        313,
        330,
        94,
        377,
        38,
        182,
        254,
        380,
        297,
        164,
        155,
        371,
        476,
        18,
        31,
        80,
        324,
        218,
        97,
        17,
        201,
        35,
        430,
        391,
        443,
        451,
        192,
        189,
        215,
        224,
        150,
        66,
        84,
        203,
        267,
        112,
        167,
        30,
        78,
        249,
        395,
        459,
        358,
        180,
        314,
        64,
        71,
        29,
        237,
        228,
        288,
        108,
        106,
        11,
        81,
        298,
        265,
        170,
        28,
        238,
        60,
        434,
        378,
        216,
        352,
        494,
        24,
        183,
        211,
        421,
        328,
        318,
        256,
        268,
        322,
        321,
        74,
        79,
        499,
        271,
        432,
        125,
        101,
        214,
        113,
        120,
        478,
        196,
        152,
        156,
        438,
        382,
        372,
        40,
        185,
        239,
        163,
        425,
        309,
        338,
        472,
        4,
        174,
        175,
        194,
        270,
        495,
        54,
        244,
        468,
        173,
        404,
        467,
        388,
        446,
        104,
        153,
        159,
        47,
        171,
        483,
        440,
        486,
        373,
        290,
        110,
        336,
        409,
        397,
        255,
        343,
        45,
        75,
        379,
        496,
        37,
        181,
        186,
        70,
        261,
        151,
        282,
        269,
        262,
        102,
        39,
        417,
        177,
        50,
        272,
        233,
        205,
        361,
        206,
        278,
        340,
        368,
        369,
        403,
        178,
        456,
        346,
        127,
        241,
        334,
        296,
        210,
        234,
        387,
        493,
        140,
        415,
        8,
        162,
        414,
        148,
        469,
        222,
        454,
        376,
        280,
        59,
        251,
        141,
        291,
        464,
        435,
        492,
        176,
        248,
        86,
        342,
        449,
        69,
        436,
        375,
        10,
        452,
        481,
        160,
        316,
        12,
        166,
        65,
        199,
        200,
        115,
        98,
        195,
        165,
        445,
        286,
        400,
        16,
        393,
        58,
        212,
        427,
        213,
        398,
        474,
        327,
        121,
        236,
        461,
        450,
        263,
        129,
        370,
        90,
        135,
        197,
        405,
        229,
        292,
        402,
        473,
        168,
        294,
        484,
        250,
        339,
        386,
        49,
        143,
        61,
        207,
        124,
        289,
        307,
        390,
        219,
        392,
        137,
        266,
        319,
        441,
        463,
        406,
        304,
        396,
        99,
        287,
        13,
        491,
        223,
        365,
        276,
        82,
        413,
        85,
        136,
        25,
        444,
        208,
        169,
        356,
        133,
        315,
        20,
        83,
        341,
        190,
        337,
        498,
        188,
        240,
        305,
        399,
        488,
        426,
        55,
        401,
        116,
        487,
        281,
        479,
        217,
        44,
        279,
        303,
        295,
        22,
        260,
        347,
        433,
        43,
        448,
        366,
        333,
        458,
        95,
        460,
        354,
        23,
        1,
        126,
        466,
        465,
        408,
        301,
        53,
        360,
        317,
        350,
        179,
        308,
        323,
        41,
        62,
        134,
        320,
        146,
        118,
        455,
        359,
        88,
        92,
        471,
        32,
        103,
        111,
        131,
        63,
        27,
        490,
        231,
        142,
        51,
        310,
        187,
        226,
        284,
        351,
        283,
        93,
        367,
        482,
        202,
        497,
        72,
        193,
        48,
        385,
        470,
        258,
        364,
        122,
        420,
        221,
        9,
        428,
        442,
        117,
        345,
        252,
        424,
        5,
        109,
        275,
        257,
        453,
        353,
        394,
        312,
        477
    ],
    "Global Optimum": 0,
    "Algorithm": "Genetic algorithm",
    "Parameters": {
        "population": 30,
        "offspring": 30,
        "mutation probability": 0.002,
        "crossover probability": 0.9
    },
    "Fitness": 703510,
    "Solution": [
        14,
        242,
        348,
        149,
        431,
        439,
        355,
        331,
        447,
        157,
        362,
        457,
        232,
        105,
        416,
        26,
        302,
        411,
        246,
        274,
        293,
        407,
        243,
        158,
        191,
        147,
        253,
        335,
        56,
        329,
        389,
        419,
        172,
        437,
        264,
        100,
        363,
        73,
        89,
        462,
        42,
        384,
        306,
        76,
        107,
        422,
        349,
        128,
        245,
        277,
        285,
        311,
        3,
        383,
        326,
        46,
        138,
        114,
        480,
        299,
        429,
        423,
        68,
        418,
        67,
        325,
        357,
        96,
        161,
        6,
        475,
        7,
        184,
        332,
        209,
        225,
        52,
        300,
        344,
        227,
        19,
        247,
        123,
        21,
        273,
        87,
        0,
        36,
        2,
        410,
        130,
        57,
        34,
        235,
        198,
        119,
        15,
        485,
        412,
        489,
        220,
        145,
        154,
        33,
        144,
        91,
        259,
        204,
        139,
        374,
        381,
        77,
        132,
        230,
        313,
        330,
        94,
        377,
        38,
        182,
        254,
        380,
        297,
        164,
        155,
        371,
        476,
        18,
        31,
        80,
        324,
        218,
        97,
        17,
        201,
        35,
        430,
        391,
        443,
        451,
        192,
        189,
        215,
        224,
        150,
        66,
        84,
        203,
        267,
        112,
        167,
        30,
        78,
        249,
        395,
        459,
        358,
        180,
        314,
        64,
        71,
        29,
        237,
        228,
        288,
        108,
        106,
        11,
        81,
        298,
        265,
        170,
        28,
        238,
        60,
        434,
        378,
        216,
        352,
        494,
        24,
        183,
        211,
        421,
        328,
        318,
        256,
        268,
        322,
        321,
        74,
        79,
        499,
        271,
        432,
        125,
        101,
        214,
        113,
        120,
        478,
        196,
        152,
        156,
        438,
        382,
        372,
        40,
        185,
        239,
        163,
        425,
        309,
        338,
        472,
        4,
        174,
        175,
        194,
        270,
        495,
        54,
        244,
        468,
        173,
        404,
        467,
        388,
        446,
        104,
        153,
        159,
        47,
        171,
        483,
        440,
        486,
        373,
        290,
        110,
        336,
        409,
        397,
        255,
        343,
        45,
        75,
        379,
        496,
        37,
        181,
        186,
        70,
        261,
        151,
        282,
        269,
        262,
        102,
        39,
        417,
        177,
        50,
        272,
        233,
        205,
        361,
        206,
        278,
        340,
        368,
        369,
        403,
        178,
        456,
        346,
        127,
        241,
        334,
        296,
        210,
        234,
        387,
        493,
        140,
        415,
        8,
        162,
        414,
        148,
        469,
        222,
        454,
        376,
        280,
        59,
        251,
        141,
        291,
        464,
        435,
        492,
        176,
        248,
        86,
        342,
        449,
        69,
        436,
        375,
        10,
        452,
        481,
        160,
        316,
        12,
        166,
        65,
        199,
        200,
        115,
        98,
        195,
        165,
        445,
        286,
        400,
        16,
        393,
        58,
        212,
        427,
        213,
        398,
        474,
        327,
        121,
        236,
        461,
        450,
        263,
        129,
        370,
        90,
        135,
        197,
        405,
        229,
        292,
        402,
        473,
        168,
        294,
        484,
        250,
        339,
        386,
        49,
        143,
        61,
        207,
        124,
        289,
        307,
        390,
        219,
        392,
        137,
        266,
        319,
        441,
        463,
        406,
        304,
        396,
        99,
        287,
        13,
        491,
        223,
        365,
        276,
        82,
        413,
        85,
        136,
        25,
        444,
        208,
        169,
        356,
        133,
        315,
        20,
        83,
        341,
        190,
        337,
        498,
        188,
        240,
        305,
        399,
        488,
        426,
        55,
        401,
        116,
        487,
        281,
        479,
        217,
        44,
        279,
        303,
        295,
        22,
        260,
        347,
        433,
        43,
        448,
        366,
        333,
        458,
        95,
        460,
        354,
        23,
        1,
        126,
        466,
        465,
        408,
        301,
        53,
        360,
        317,
        350,
        179,
        308,
        323,
        41,
        62,
        134,
        320,
        146,
        118,
        455,
        359,
        88,
        92,
        471,
        32,
        103,
        111,
        131,
        63,
        27,
        490,
        231,
        142,
        51,
        310,
        187,
        226,
        284,
        351,
        283,
        93,
        367,
        482,
        202,
        497,
        72,
        193,
        48,
        385,
        470,
        258,
        364,
        122,
        420,
        221,
        9,
        428,
        442,
        117,
        345,
        252,
        424,
        5,
        109,
        275,
        257,
        453,
        353,
        394,
        312,
        477
    ],
    "Nb of functions evaluations": 50010,
    "Computational time in seconds": 361.5130751132965,
    "Stopping criterion in evaluations": 50000
}